true true true
presolving:
presolving (0 rounds: 0 fast, 0 medium, 0 exhaustive):
 0 deleted vars, 0 deleted constraints, 0 added constraints, 0 tightened bounds, 0 added holes, 0 changed sides, 0 changed coefficients
 0 implications, 0 cliques
presolved problem has 49 variables (49 bin, 0 int, 0 impl, 0 cont) and 39 constraints
     39 constraints of type <linear>
transformed objective value is always integral (scale: 1)
Presolving Time: 0.00

 time | node  | left  |LP iter|LP it/n|mem/heur|mdpt |vars |cons |rows |cuts |sepa|confs|strbr|  dualbound   | primalbound  |  gap   | compl. 
p 0.0s|     1 |     0 |     0 |     - |shiftand|   0 |  49 |  39 |  39 |   0 |  0 |   0 |   0 |      --      | 1.000000e+01 |    Inf | unknown
 time | node  | left  |LP iter|LP it/n|mem/heur|mdpt |vars |cons |rows |cuts |sepa|confs|strbr|  dualbound   | primalbound  |  gap   | compl. 
  0.0s|     1 |     0 |    33 |     - |  1606k |   0 | 316 |  39 |  39 |   0 |  0 |   0 |   0 | 1.000000e+00 | 1.000000e+01 | 900.00%| unknown
 time | node  | left  |LP iter|LP it/n|mem/heur|mdpt |vars |cons |rows |cuts |sepa|confs|strbr|  dualbound   | primalbound  |  gap   | compl. 
  0.3s|     1 |     0 |   290 |     - |  3029k |   0 | 819 |  39 |  39 |   0 |  0 |   0 |   0 | 9.000000e+00 | 1.000000e+01 |  11.11%| unknown
 time | node  | left  |LP iter|LP it/n|mem/heur|mdpt |vars |cons |rows |cuts |sepa|confs|strbr|  dualbound   | primalbound  |  gap   | compl. 
  0.4s|     1 |     2 |   539 |     - |  3346k |   0 | 819 |  39 |  39 |   0 |  1 |   0 |   0 | 9.000000e+00 | 1.000000e+01 |  11.11%| unknown
 time | node  | left  |LP iter|LP it/n|mem/heur|mdpt |vars |cons |rows |cuts |sepa|confs|strbr|  dualbound   | primalbound  |  gap   | compl. 
  0.4s|     2 |     3 |   559 |  20.0 |  3411k |   1 | 819 |  39 |  39 |   0 |  1 |   0 |   0 | 9.000000e+00 | 1.000000e+01 |  11.11%| unknown
 time | node  | left  |LP iter|LP it/n|mem/heur|mdpt |vars |cons |rows |cuts |sepa|confs|strbr|  dualbound   | primalbound  |  gap   | compl. 
  0.4s|     3 |     4 |   580 |  20.5 |  3537k |   1 | 819 |  39 |  39 |   0 |  1 |   0 |   0 | 9.000000e+00 | 1.000000e+01 |  11.11%| unknown
 time | node  | left  |LP iter|LP it/n|mem/heur|mdpt |vars |cons |rows |cuts |sepa|confs|strbr|  dualbound   | primalbound  |  gap   | compl. 
  0.4s|     4 |     5 |   614 |  25.0 |  3550k |   2 | 819 |  39 |  39 |   0 |  1 |   0 |   0 | 9.000000e+00 | 1.000000e+01 |  11.11%| unknown
 time | node  | left  |LP iter|LP it/n|mem/heur|mdpt |vars |cons |rows |cuts |sepa|confs|strbr|  dualbound   | primalbound  |  gap   | compl. 
  0.5s|     5 |     6 |   618 |  19.8 |  3554k |   3 | 819 |  39 |  39 |   0 |  1 |   0 |   0 | 9.000000e+00 | 1.000000e+01 |  11.11%| unknown
 time | node  | left  |LP iter|LP it/n|mem/heur|mdpt |vars |cons |rows |cuts |sepa|confs|strbr|  dualbound   | primalbound  |  gap   | compl. 
  0.5s|     6 |     7 |   775 |  47.2 |  3836k |   3 | 819 |  39 |  39 |   0 |  1 |   0 |   0 | 9.000000e+00 | 1.000000e+01 |  11.11%| unknown
 time | node  | left  |LP iter|LP it/n|mem/heur|mdpt |vars |cons |rows |cuts |sepa|confs|strbr|  dualbound   | primalbound  |  gap   | compl. 
  0.5s|     7 |     8 |   796 |  42.8 |  3841k |   3 | 819 |  39 |  39 |   0 |  1 |   0 |   0 | 9.000000e+00 | 1.000000e+01 |  11.11%| unknown
 time | node  | left  |LP iter|LP it/n|mem/heur|mdpt |vars |cons |rows |cuts |sepa|confs|strbr|  dualbound   | primalbound  |  gap   | compl. 
  0.6s|     8 |     9 |   807 |  38.3 |  3844k |   3 | 819 |  39 |  39 |   0 |  1 |   0 |   0 | 9.000000e+00 | 1.000000e+01 |  11.11%| unknown
 time | node  | left  |LP iter|LP it/n|mem/heur|mdpt |vars |cons |rows |cuts |sepa|confs|strbr|  dualbound   | primalbound  |  gap   | compl. 
  0.6s|     9 |    10 |   819 |  35.0 |  3845k |   3 | 819 |  39 |  39 |   0 |  1 |   0 |   0 | 9.000000e+00 | 1.000000e+01 |  11.11%| unknown
 time | node  | left  |LP iter|LP it/n|mem/heur|mdpt |vars |cons |rows |cuts |sepa|confs|strbr|  dualbound   | primalbound  |  gap   | compl. 
  0.7s|    10 |    11 |   840 |  33.4 |  3845k |   4 | 819 |  39 |  39 |   0 |  1 |   0 |   0 | 9.000000e+00 | 1.000000e+01 |  11.11%| unknown
 time | node  | left  |LP iter|LP it/n|mem/heur|mdpt |vars |cons |rows |cuts |sepa|confs|strbr|  dualbound   | primalbound  |  gap   | compl. 
  0.7s|    11 |    12 |   843 |  30.4 |  3846k |   5 | 819 |  39 |  39 |   0 |  1 |   0 |   0 | 9.000000e+00 | 1.000000e+01 |  11.11%| unknown
 time | node  | left  |LP iter|LP it/n|mem/heur|mdpt |vars |cons |rows |cuts |sepa|confs|strbr|  dualbound   | primalbound  |  gap   | compl. 
  0.8s|    12 |    13 |   846 |  27.9 |  3847k |   6 | 819 |  39 |  39 |   0 |  1 |   0 |   0 | 9.000000e+00 | 1.000000e+01 |  11.11%| unknown
 time | node  | left  |LP iter|LP it/n|mem/heur|mdpt |vars |cons |rows |cuts |sepa|confs|strbr|  dualbound   | primalbound  |  gap   | compl. 
  0.8s|    13 |    14 |   862 |  26.9 |  3860k |   6 | 819 |  39 |  39 |   0 |  1 |   0 |   0 | 9.000000e+00 | 1.000000e+01 |  11.11%| unknown
 time | node  | left  |LP iter|LP it/n|mem/heur|mdpt |vars |cons |rows |cuts |sepa|confs|strbr|  dualbound   | primalbound  |  gap   | compl. 
  0.9s|    14 |    15 |   877 |  26.0 |  3864k |   7 | 819 |  39 |  39 |   0 |  1 |   0 |   0 | 9.000000e+00 | 1.000000e+01 |  11.11%| unknown
 time | node  | left  |LP iter|LP it/n|mem/heur|mdpt |vars |cons |rows |cuts |sepa|confs|strbr|  dualbound   | primalbound  |  gap   | compl. 
  0.9s|    15 |    16 |   937 |  28.4 |  3864k |   7 | 819 |  39 |  39 |   0 |  1 |   0 |   0 | 9.000000e+00 | 1.000000e+01 |  11.11%| unknown
 time | node  | left  |LP iter|LP it/n|mem/heur|mdpt |vars |cons |rows |cuts |sepa|confs|strbr|  dualbound   | primalbound  |  gap   | compl. 
  1.0s|    16 |    17 |   997 |  30.5 |  3870k |   8 | 819 |  39 |  39 |   0 |  1 |   0 |   0 | 9.000000e+00 | 1.000000e+01 |  11.11%| unknown
 time | node  | left  |LP iter|LP it/n|mem/heur|mdpt |vars |cons |rows |cuts |sepa|confs|strbr|  dualbound   | primalbound  |  gap   | compl. 
  1.0s|    17 |    18 |  1065 |  32.9 |  3919k |   8 | 819 |  39 |  39 |   0 |  1 |   0 |   0 | 9.000000e+00 | 1.000000e+01 |  11.11%| unknown
 time | node  | left  |LP iter|LP it/n|mem/heur|mdpt |vars |cons |rows |cuts |sepa|confs|strbr|  dualbound   | primalbound  |  gap   | compl. 
  1.1s|    18 |    19 |  1068 |  31.1 |  3919k |   8 | 819 |  39 |  39 |   0 |  1 |   0 |   0 | 9.000000e+00 | 1.000000e+01 |  11.11%| unknown
 time | node  | left  |LP iter|LP it/n|mem/heur|mdpt |vars |cons |rows |cuts |sepa|confs|strbr|  dualbound   | primalbound  |  gap   | compl. 
  1.2s|    19 |    20 |  1069 |  29.4 |  3921k |   9 | 819 |  39 |  39 |   0 |  1 |   0 |   0 | 9.000000e+00 | 1.000000e+01 |  11.11%| unknown
 time | node  | left  |LP iter|LP it/n|mem/heur|mdpt |vars |cons |rows |cuts |sepa|confs|strbr|  dualbound   | primalbound  |  gap   | compl. 
  1.2s|    20 |    21 |  1083 |  28.6 |  3922k |   9 | 819 |  39 |  39 |   0 |  1 |   0 |   0 | 9.000000e+00 | 1.000000e+01 |  11.11%| unknown
 time | node  | left  |LP iter|LP it/n|mem/heur|mdpt |vars |cons |rows |cuts |sepa|confs|strbr|  dualbound   | primalbound  |  gap   | compl. 
  1.3s|    21 |    22 |  1101 |  28.1 |  3924k |  10 | 819 |  39 |  39 |   0 |  1 |   0 |   0 | 9.000000e+00 | 1.000000e+01 |  11.11%| unknown
 time | node  | left  |LP iter|LP it/n|mem/heur|mdpt |vars |cons |rows |cuts |sepa|confs|strbr|  dualbound   | primalbound  |  gap   | compl. 
  1.4s|    22 |    23 |  1149 |  29.0 |  4528k |  11 |1045 |  39 |  39 |   0 |  1 |   0 |   0 | 9.000000e+00 | 1.000000e+01 |  11.11%| unknown
 time | node  | left  |LP iter|LP it/n|mem/heur|mdpt |vars |cons |rows |cuts |sepa|confs|strbr|  dualbound   | primalbound  |  gap   | compl. 
  1.5s|    23 |    24 |  1215 |  30.7 |  4710k |  12 |1135 |  39 |  39 |   0 |  1 |   0 |   0 | 9.000000e+00 | 1.000000e+01 |  11.11%| unknown
 time | node  | left  |LP iter|LP it/n|mem/heur|mdpt |vars |cons |rows |cuts |sepa|confs|strbr|  dualbound   | primalbound  |  gap   | compl. 
r 1.6s|    24 |     0 |  1247 |  30.8 |simplero|  12 |1187 |  39 |  39 |   0 |  0 |   0 |   0 | 9.000000e+00 | 9.000000e+00 |   0.00%|  99.98%

SCIP Status        : problem is solved [optimal solution found]
Solving Time (sec) : 1.57
Solving Nodes      : 24
Primal Bound       : +9.00000000000000e+00 (4 solutions)
Dual Bound         : +9.00000000000000e+00
Gap                : 0.00 %
Running with parallel: True bidir: True symbreak: True
Number of Nodes:  39
47.09115123316307% holds
starting cheapest insertion heuristic
Heuristic without TSP improvement:  10
Heuristic without TSP improvement time:  0.1
Heuristic Sol:  10
Heuristic total time:  0.1
[[38, 28, 29, 10], [37, 18, 33, 31], [36, 9, 1, 3, 4, 13], [35, 21, 22], [34, 7, 32], [30, 23, 20], [27, 19, 26, 17, 12, 8], [25, 0, 2, 6], [24, 14, 5], [16, 15, 11]]
Instance path:  /home/htc/mghannam/SCRATCH/lccp-rust/data/at84_ftv38.npcc
Timelimit:  7200
Heuristic without TSP improvement:  10
Heuristic without TSP improvement time:  0.1
Heuristic Sol:  10
Heuristic total time:  0.1
at 1 zero_duals: 29
at1, LP obj: 10.0 n_added_paths: 267
at 1 zero_duals: 17
at1, LP obj: 10.0 n_added_paths: 154
at 1 zero_duals: 4
at1, LP obj: 10.0 n_added_paths: 241
at 1 zero_duals: 11
at1, LP obj: 8.625 n_added_paths: 13
at 1 zero_duals: 7
at1, LP obj: 8.452380952380953 n_added_paths: 42
at 1 zero_duals: 6
Switching to elementary pricing
at1, LP obj: 8.32325581395349 n_added_paths: 44
updated lowerbound from 1.0 to 8
at 1 zero_duals: 11
Switching to elementary pricing
at1, LP obj: 8.25531914893617 n_added_paths: 9
updated lowerbound from 8.0 to 9
Gap too small = 0, stopping pricing with lb = 9
Gap too small = 0, stopping pricing with lb = 9
Gap too small = 0, stopping pricing with lb = 9
Gap too small = 0, stopping pricing with lb = 9
Gap too small = 0, stopping pricing with lb = 9
Gap too small = 0, stopping pricing with lb = 9
Gap too small = 0, stopping pricing with lb = 9
Gap too small = 0, stopping pricing with lb = 9
Gap too small = 0, stopping pricing with lb = 9
Gap too small = 0, stopping pricing with lb = 9
Gap too small = 0, stopping pricing with lb = 9
Gap too small = 0, stopping pricing with lb = 9
Gap too small = 0, stopping pricing with lb = 9
Gap too small = 0, stopping pricing with lb = 9
Gap too small = 0, stopping pricing with lb = 9
Gap too small = 0, stopping pricing with lb = 9
Gap too small = 0, stopping pricing with lb = 9
Gap too small = 0, stopping pricing with lb = 9
Gap too small = 0, stopping pricing with lb = 9
Gap too small = 0, stopping pricing with lb = 9
Gap too small = 0, stopping pricing with lb = 9
at 42 zero_duals: 15
at42, LP obj: 9.38095238095238 n_added_paths: 226
Gap too small = 0, stopping pricing with lb = 9
at 44 zero_duals: 36
Switching to elementary pricing
at44, LP obj: 1e+20 n_added_paths: 33
updated lowerbound from 9.0 to 100000000000000000000
at 44 zero_duals: 9
Switching to elementary pricing
at44, LP obj: 9.153846153846153 n_added_paths: 57
Gap too small = 0, stopping pricing with lb = 9
at 43 zero_duals: 14
Switching to elementary pricing
at43, LP obj: 9.166666666666666 n_added_paths: 52
Gap too small = 0, stopping pricing with lb = 9
Best solution found:
[15, 7, 11, 8, 15] 1.0 1.0
checking cycle [15, 7, 11, 8, 15]
[15, 7, 11, 8, 15] 295 278
[14, 5, 4, 13, 14] 1.0 1.0
checking cycle [14, 5, 4, 13, 14]
[14, 5, 4, 13, 14] 305 256
[27, 16, 27] 1.0 1.0
checking cycle [27, 16, 27]
[27, 16, 27] 256 228
[23, 0, 6, 2, 20, 23] 1.0 1.0
checking cycle [23, 0, 6, 2, 20, 23]
[23, 0, 6, 2, 20, 23] 270 254
[26, 19, 21, 12, 3, 1, 9, 17, 26] 1.0 1.0
checking cycle [26, 19, 21, 12, 3, 1, 9, 17, 26]
[26, 19, 21, 12, 3, 1, 9, 17, 26] 265 260
[34, 32, 33, 18, 34] 1.0 1.0
checking cycle [34, 32, 33, 18, 34]
[34, 32, 33, 18, 34] 218 216
[37, 31, 36, 30, 37] 1.0 1.0
checking cycle [37, 31, 36, 30, 37]
[37, 31, 36, 30, 37] 194 184
[38, 10, 22, 35, 38] 1.0 1.0
checking cycle [38, 10, 22, 35, 38]
[38, 10, 22, 35, 38] 193 184
[29, 28, 24, 25, 29] 1.0 1.0
checking cycle [29, 28, 24, 25, 29]
[29, 28, 24, 25, 29] 244 200
